param N = 21;

set Meals := Brunch Dinner;
set Restaurants := 3 8 11 14 17 18 19;
set Destinations := 0 1 2 4 5 6 7 9 10 12 13 15 16 20 21;

param travel_time
    :   0   1   2   3   4   5   6   7   8   9   10  11  12  13  14  15  16  17  18  19  20 21 :=
    0   0	45	40	40	40	40	40	40	40	40	40	40	40	40	40	35	40	35	40	40	80 80
    1   40	0	30	30	30	30	28	30	28	35	30	28	30	30	35	30	30	28	70	16	70 70
    2   30	28	0	4	1	5	2	5	2	5	5	4	3	4	6	7	4	18	50	14	50 50
    3   28	28	3	0	3	1	3	6	3	3	5	5	4	1	4	6	2	16	50	14	50 50
    4   28	28	1	4	0	5	2	6	2	5	5	5	3	4	6	9	4	18	50	14	50 50
    5   28	28	3	1	4	0	4	6	3	4	6	5	5	2	5	6	3	16	50	14	50 50
    6   28	26	2	4	2	4	0	6	1	6	6	5	4	4	7	7	3	18	50	12	50 50
    7   35	30	8	8	8	8	7	0	5	8	12	4	10	8	10	12	9	22	55	14	50 50
    8   28	26	2	3	2	4	1	4	0	5	5	4	4	3	6	7	3	18	50	10	50 50
    9   30	30	5	3	5	2	6	7	5	0	4	7	3	3	1	9	5	18	50	18	55 55
    10  30	28	1	4	2	5	2	7	2	5	0	6	3	4	6	9	4	18	50	14	50 50
    11  35	28	8	7	8	7	6	3	5	9	12	0	10	8	10	12	9	22	55	14	50 50
    12  28	28	5	6	5	6	6	8	5	6	5	7	0	5	7	6	2	16	50	14	50 50
    13  28	28	3	1	3	2	4	6	3	3	5	6	3	0	4	6	3	16	50	16	50 50
    14  35	35	8	6	8	6	8	8	8	4	8	7	6	6	0	9	8	20	55	18	55 55
    15  26	35	9	9	9	10	10	12	9	9	9	10	8	9	9	0	6	14	50	18	55 55
    16  28	28	3	4	3	4	4	8	4	5	3	7	3	3	6	6	0	16	50	14	50 50
    17  35	28	18	20	20	20	18	22	18	20	20	22	20	20	22	16	18	0	55	14	70 70
    18  40	75	60	60	60	60	60	60	60	60	60	60	55	60	60	55	60	55	0	65	110 110
    19  35	18	14	16	16	16	14	16	14	18	16	14	18	16	18	18	16	14	65	0	60 60
    20  70	65	50	50	50	50	50	45	50	55	55	45	55	50	55	55	50	65	100	55	0  0
    21  70	65	50	50	50	50	50	45	50	55	55	45	55	50	55	55	50	65	100	55	0  0
;

param duration :=
    0 120
    1 180
    2 60
    3 60
    4 60
    5 60
    6 180
    7 120
    8 60
    9 60
    10 60
    11 180
    12 60
    13 60
    14 60
    15 180
    16 180
    17 60
    18 60
    19 60
    20 0;
    21 0;

param happiness := 
    0 5
    1 6.666666667
    2 3.333333333
    3 7.666666667
    4 6
    5 4.333333333
    6 2.333333333
    7 6
    8 6.666666667
    9 6.333333333
    10 4.333333333
    11 6
    12 5
    13 8
    14 4.666666667
    15 2
    16 4.333333333
    17 6.333333333
    18 6.333333333
    19 8
    20 0
    21 0;

param anger_coef := 1;
param total_time := 840;  # 14 hours. We leave Mudd at 8 a.m. and get back at 10 p.m.
param meal_time :=
    Brunch 180  # Brunch at 11 a.m.
    Dinner 540; # Dinner at 5 p.m.
param M := 9999;
